p tw 72 156
0 1
0 2
0 3
0 63
1 2
1 3
1 50
1 56
1 57
2 3
2 64
2 65
3 61
3 62
4 5
4 32
4 40
4 41
5 33
6 7
6 26
6 57
7 24
7 47
7 48
7 49
8 9
8 10
8 41
9 10
9 38
9 45
9 46
10 39
11 12
11 20
11 68
12 35
13 14
13 15
13 23
13 42
13 43
13 44
14 15
14 16
14 27
14 28
15 67
16 17
16 27
16 28
17 37
17 56
18 19
18 20
18 31
18 44
18 66
18 67
19 20
19 29
19 70
20 68
21 22
21 23
21 38
21 39
22 23
22 45
22 53
23 42
23 43
23 44
24 25
24 26
24 47
24 48
24 49
25 26
25 36
25 50
26 57
27 28
27 34
28 58
29 30
29 31
29 70
30 31
30 43
30 71
31 44
31 66
31 67
32 33
32 40
32 41
34 58
35 46
35 68
35 70
36 37
36 50
37 56
38 39
38 45
38 46
40 41
40 49
40 51
42 43
42 44
42 53
43 44
43 71
44 66
44 67
45 46
45 53
46 68
46 70
47 48
47 49
47 55
47 69
48 49
48 52
48 54
48 59
48 60
49 51
50 56
50 57
51 52
52 54
52 59
52 60
54 55
54 59
54 60
55 69
56 57
59 60
59 61
59 69
60 62
60 64
61 62
61 69
62 64
63 65
64 65
66 67
66 71
68 70
